treewidth/data/MoebiusKantorGraph.gr
p tw 16 24
1 2
1 14
1 15
2 9
2 16
9 10
9 3
10 11
10 4
11 12
11 5
12 13
12 6
13 14
13 7
14 8
15 4
15 6
16 5
16 7
3 6
3 8
4 7
5 8
