treewidth/data/MoebiusKantorGraph.td
c width = 5, time = 0.062933
s td 11 6 16
b 1 3 6 12 15
b 2 3 10 12 14 15 16
b 3 2 3 10 14 15 16
b 4 1 2 14 15
b 5 2 3 9 10
b 6 7 10 12 14 15 16
b 7 4 7 10 15
b 8 7 12 13 14
b 9 3 5 10 12 14 16
b 10 3 5 8 14
b 11 5 10 11 12
3 4
3 5
2 3
6 7
6 8
2 6
9 10
9 11
2 9
1 2
